Calculando min-max:
Criando instancia max-E...
Instancia criada.
Resolvendo instancia...

Welcome to IBM(R) ILOG(R) CPLEX(R) Interactive Optimizer 22.1.0.0
  with Simplex, Mixed Integer & Barrier Optimizers
5725-A06 5725-A29 5724-Y48 5724-Y49 5724-Y54 5724-Y55 5655-Y21
Copyright IBM Corp. 1988, 2022.  All Rights Reserved.

Type 'help' for a list of available commands.
Type 'help' followed by a command name for more
information on commands.

CPLEX> Logfile 'cplex.log' closed.
Logfile 'C:\Users\LUCASP~1\AppData\Local\Temp\tmpi3sx6cyv.cplex.log' open.
CPLEX> Problem 'C:\Users\LUCASP~1\AppData\Local\Temp\tmpefx057jx.pyomo.lp' read.
Read time = 0.05 sec. (0.82 ticks)
CPLEX> Problem name         : C:\Users\LUCASP~1\AppData\Local\Temp\tmpefx057jx.pyomo.lp
Objective sense      : Maximize
Variables            :    5232  [Nneg: 1,  Binary: 5220,  General Integer: 11]
Objective nonzeros   :      30
Linear constraints   :    8245  [Less: 5021,  Greater: 1,  Equal: 3223]
  Nonzeros           :   20786
  RHS nonzeros       :    1593

Variables            : Min LB: 0.000000         Max UB: 1.000000       
Objective nonzeros   : Min   : 0.3058910        Max   : 0.7619800      
Linear constraints   :
  Nonzeros           : Min   : 1.000000         Max   : 100000.0       
  RHS nonzeros       : Min   : 1.000000         Max   : 10.00000       
CPLEX> Version identifier: 22.1.0.0 | 2022-03-09 | 1a383f8ce
Tried aggregator 3 times.
MIP Presolve eliminated 5105 rows and 3619 columns.
MIP Presolve modified 369 coefficients.
Aggregator did 172 substitutions.
Reduced MIP has 2968 rows, 1441 columns, and 7950 nonzeros.
Reduced MIP has 1431 binaries, 10 generals, 0 SOSs, and 0 indicators.
Presolve time = 0.11 sec. (23.62 ticks)
Found incumbent of value 1.517871 after 0.22 sec. (37.83 ticks)
Probing time = 0.02 sec. (3.40 ticks)
Tried aggregator 1 time.
Detecting symmetries...
Reduced MIP has 2968 rows, 1441 columns, and 7950 nonzeros.
Reduced MIP has 1431 binaries, 10 generals, 0 SOSs, and 0 indicators.
Presolve time = 0.05 sec. (11.78 ticks)
Probing time = 0.02 sec. (3.35 ticks)
Clique table members: 5399.
MIP emphasis: balance optimality and feasibility.
MIP search method: dynamic search.
Parallel mode: deterministic, using up to 4 threads.
Root relaxation solution time = 0.08 sec. (14.74 ticks)

        Nodes                                         Cuts/
   Node  Left     Objective  IInf  Best Integer    Best Bound    ItCnt     Gap

*     0+    0                            1.5179       17.0141              --- 
      0     0        7.6198    27        1.5179        7.6198      271  402.01%
*     0+    0                            7.6198        7.6198             0.00%
      0     0        cutoff              7.6198        7.6198      271    0.00%
Elapsed time = 0.67 sec. (136.20 ticks, tree = 0.01 MB, solutions = 2)

Root node processing (before b&c):
  Real time             =    0.69 sec. (136.43 ticks)
Parallel b&c, 4 threads:
  Real time             =    0.00 sec. (0.00 ticks)
  Sync time (average)   =    0.00 sec.
  Wait time (average)   =    0.00 sec.
                          ------------
Total (root+branch&cut) =    0.69 sec. (136.43 ticks)

Solution pool: 2 solutions saved.

MIP - Integer optimal solution:  Objective =  7.6198000000e+00
Solution time =    0.69 sec.  Iterations = 271  Nodes = 0
Deterministic time = 136.44 ticks  (198.32 ticks/sec)

CPLEX> Incumbent solution written to file 'C:\Users\LUCASP~1\AppData\Local\Temp\tmpko6kimz6.cplex.sol'.
CPLEX> Criando instancia max-C...
Instancia criada.
Resolvendo instancia...

Welcome to IBM(R) ILOG(R) CPLEX(R) Interactive Optimizer 22.1.0.0
  with Simplex, Mixed Integer & Barrier Optimizers
5725-A06 5725-A29 5724-Y48 5724-Y49 5724-Y54 5724-Y55 5655-Y21
Copyright IBM Corp. 1988, 2022.  All Rights Reserved.

Type 'help' for a list of available commands.
Type 'help' followed by a command name for more
information on commands.

CPLEX> Logfile 'cplex.log' closed.
Logfile 'C:\Users\LUCASP~1\AppData\Local\Temp\tmpbxedc4sk.cplex.log' open.
CPLEX> Problem 'C:\Users\LUCASP~1\AppData\Local\Temp\tmps0nqdsrg.pyomo.lp' read.
Read time = 0.05 sec. (0.82 ticks)
CPLEX> Problem name         : C:\Users\LUCASP~1\AppData\Local\Temp\tmps0nqdsrg.pyomo.lp
Objective sense      : Maximize
Variables            :    5232  [Nneg: 1,  Binary: 5220,  General Integer: 11]
Objective nonzeros   :     100
Linear constraints   :    8245  [Less: 5021,  Greater: 1,  Equal: 3223]
  Nonzeros           :   20786
  RHS nonzeros       :    1593

Variables            : Min LB: 0.000000         Max UB: 1.000000       
Objective nonzeros   : Min   : 1.000000         Max   : 1.000000       
Linear constraints   :
  Nonzeros           : Min   : 1.000000         Max   : 100000.0       
  RHS nonzeros       : Min   : 1.000000         Max   : 10.00000       
CPLEX> Version identifier: 22.1.0.0 | 2022-03-09 | 1a383f8ce
Tried aggregator 3 times.
MIP Presolve eliminated 5105 rows and 3619 columns.
MIP Presolve modified 369 coefficients.
Aggregator did 172 substitutions.
Reduced MIP has 2968 rows, 1441 columns, and 7950 nonzeros.
Reduced MIP has 1431 binaries, 10 generals, 0 SOSs, and 0 indicators.
Presolve time = 0.14 sec. (23.58 ticks)
Found incumbent of value 0.000000 after 0.22 sec. (38.60 ticks)
Probing time = 0.02 sec. (3.41 ticks)
Tried aggregator 1 time.
Detecting symmetries...
Reduced MIP has 2968 rows, 1441 columns, and 7950 nonzeros.
Reduced MIP has 1431 binaries, 10 generals, 0 SOSs, and 0 indicators.
Presolve time = 0.11 sec. (22.70 ticks)
Probing time = 0.02 sec. (3.38 ticks)
Clique table members: 5399.
MIP emphasis: balance optimality and feasibility.
MIP search method: dynamic search.
Parallel mode: deterministic, using up to 4 threads.
Root relaxation solution time = 0.17 sec. (16.18 ticks)

        Nodes                                         Cuts/
   Node  Left     Objective  IInf  Best Integer    Best Bound    ItCnt     Gap

*     0+    0                            0.0000       73.0000              --- 
*     0+    0                           22.0000       73.0000           231.82%
      0     0       73.0000   206       22.0000       73.0000      479  231.82%
      0     0       73.0000   100       22.0000      Cuts: 33      657  231.82%
      0     0       73.0000   313       22.0000      Cuts: 96      899  231.82%
*     0+    0                           24.0000       73.0000           204.17%
*     0+    0                           73.0000       73.0000             0.00%
      0     0        cutoff             73.0000       73.0000      899    0.00%
Elapsed time = 1.63 sec. (276.33 ticks, tree = 0.01 MB, solutions = 4)

Implied bound cuts applied:  10

Root node processing (before b&c):
  Real time             =    1.64 sec. (276.61 ticks)
Parallel b&c, 4 threads:
  Real time             =    0.00 sec. (0.00 ticks)
  Sync time (average)   =    0.00 sec.
  Wait time (average)   =    0.00 sec.
                          ------------
Total (root+branch&cut) =    1.64 sec. (276.61 ticks)

Solution pool: 4 solutions saved.

MIP - Integer optimal solution:  Objective =  7.3000000000e+01
Solution time =    1.64 sec.  Iterations = 899  Nodes = 0
Deterministic time = 276.62 ticks  (168.57 ticks/sec)

CPLEX> Incumbent solution written to file 'C:\Users\LUCASP~1\AppData\Local\Temp\tmpk05grl09.cplex.sol'.
CPLEX> Criando instancia min-E...
Instancia criada.
Resolvendo instancia...

Welcome to IBM(R) ILOG(R) CPLEX(R) Interactive Optimizer 22.1.0.0
  with Simplex, Mixed Integer & Barrier Optimizers
5725-A06 5725-A29 5724-Y48 5724-Y49 5724-Y54 5724-Y55 5655-Y21
Copyright IBM Corp. 1988, 2022.  All Rights Reserved.

Type 'help' for a list of available commands.
Type 'help' followed by a command name for more
information on commands.

CPLEX> Logfile 'cplex.log' closed.
Logfile 'C:\Users\LUCASP~1\AppData\Local\Temp\tmpbkjp2s8e.cplex.log' open.
CPLEX> Problem 'C:\Users\LUCASP~1\AppData\Local\Temp\tmp3gnjy88f.pyomo.lp' read.
Read time = 0.06 sec. (0.82 ticks)
CPLEX> Problem name         : C:\Users\LUCASP~1\AppData\Local\Temp\tmp3gnjy88f.pyomo.lp
Objective sense      : Minimize
Variables            :    5232  [Nneg: 1,  Binary: 5220,  General Integer: 11]
Objective nonzeros   :      30
Linear constraints   :    8245  [Less: 5021,  Greater: 1,  Equal: 3223]
  Nonzeros           :   20786
  RHS nonzeros       :    1593

Variables            : Min LB: 0.000000         Max UB: 1.000000       
Objective nonzeros   : Min   : 0.3058910        Max   : 0.7619800      
Linear constraints   :
  Nonzeros           : Min   : 1.000000         Max   : 100000.0       
  RHS nonzeros       : Min   : 1.000000         Max   : 10.00000       
CPLEX> Version identifier: 22.1.0.0 | 2022-03-09 | 1a383f8ce
Tried aggregator 3 times.
MIP Presolve eliminated 5105 rows and 3619 columns.
MIP Presolve modified 369 coefficients.
Aggregator did 172 substitutions.
Reduced MIP has 2968 rows, 1441 columns, and 7950 nonzeros.
Reduced MIP has 1431 binaries, 10 generals, 0 SOSs, and 0 indicators.
Presolve time = 0.11 sec. (23.62 ticks)
Found incumbent of value 1.517871 after 0.20 sec. (37.83 ticks)
Probing time = 0.02 sec. (3.40 ticks)
Tried aggregator 1 time.
Detecting symmetries...
Reduced MIP has 2968 rows, 1441 columns, and 7950 nonzeros.
Reduced MIP has 1431 binaries, 10 generals, 0 SOSs, and 0 indicators.
Presolve time = 0.05 sec. (11.78 ticks)
Probing time = 0.03 sec. (3.35 ticks)
Clique table members: 5399.
MIP emphasis: balance optimality and feasibility.
MIP search method: dynamic search.
Parallel mode: deterministic, using up to 4 threads.
Root relaxation solution time = 0.06 sec. (11.41 ticks)

        Nodes                                         Cuts/
   Node  Left     Objective  IInf  Best Integer    Best Bound    ItCnt     Gap

*     0+    0                            1.5179        0.0000           100.00%
      0     0        0.6118    24        1.5179        0.6118      136   59.69%
*     0+    0                            0.6118        0.6118             0.00%
      0     0        cutoff              0.6118        0.6118      136    0.00%
Elapsed time = 0.56 sec. (99.66 ticks, tree = 0.01 MB, solutions = 2)

Root node processing (before b&c):
  Real time             =    0.58 sec. (99.88 ticks)
Parallel b&c, 4 threads:
  Real time             =    0.00 sec. (0.00 ticks)
  Sync time (average)   =    0.00 sec.
  Wait time (average)   =    0.00 sec.
                          ------------
Total (root+branch&cut) =    0.58 sec. (99.88 ticks)

Solution pool: 2 solutions saved.

MIP - Integer optimal solution:  Objective =  6.1178200000e-01
Solution time =    0.58 sec.  Iterations = 136  Nodes = 0
Deterministic time = 99.89 ticks  (172.52 ticks/sec)

CPLEX> Incumbent solution written to file 'C:\Users\LUCASP~1\AppData\Local\Temp\tmpllw6swzh.cplex.sol'.
CPLEX> Criando instancia min-C...
Instancia criada.
Resolvendo instancia...

Welcome to IBM(R) ILOG(R) CPLEX(R) Interactive Optimizer 22.1.0.0
  with Simplex, Mixed Integer & Barrier Optimizers
5725-A06 5725-A29 5724-Y48 5724-Y49 5724-Y54 5724-Y55 5655-Y21
Copyright IBM Corp. 1988, 2022.  All Rights Reserved.

Type 'help' for a list of available commands.
Type 'help' followed by a command name for more
information on commands.

CPLEX> Logfile 'cplex.log' closed.
Logfile 'C:\Users\LUCASP~1\AppData\Local\Temp\tmpap3d56yk.cplex.log' open.
CPLEX> Problem 'C:\Users\LUCASP~1\AppData\Local\Temp\tmpz4ukre1l.pyomo.lp' read.
Read time = 0.06 sec. (0.82 ticks)
CPLEX> Problem name         : C:\Users\LUCASP~1\AppData\Local\Temp\tmpz4ukre1l.pyomo.lp
Objective sense      : Minimize
Variables            :    5232  [Nneg: 1,  Binary: 5220,  General Integer: 11]
Objective nonzeros   :     100
Linear constraints   :    8245  [Less: 5021,  Greater: 1,  Equal: 3223]
  Nonzeros           :   20786
  RHS nonzeros       :    1593

Variables            : Min LB: 0.000000         Max UB: 1.000000       
Objective nonzeros   : Min   : 1.000000         Max   : 1.000000       
Linear constraints   :
  Nonzeros           : Min   : 1.000000         Max   : 100000.0       
  RHS nonzeros       : Min   : 1.000000         Max   : 10.00000       
CPLEX> Version identifier: 22.1.0.0 | 2022-03-09 | 1a383f8ce
Tried aggregator 3 times.
MIP Presolve eliminated 5125 rows and 3619 columns.
MIP Presolve added 40 rows and 0 columns.
MIP Presolve modified 369 coefficients.
Aggregator did 172 substitutions.
Reduced MIP has 2988 rows, 1441 columns, and 7970 nonzeros.
Reduced MIP has 1431 binaries, 10 generals, 0 SOSs, and 0 indicators.
Presolve time = 0.14 sec. (24.84 ticks)
Found incumbent of value 0.000000 after 0.25 sec. (39.89 ticks)

Root node processing (before b&c):
  Real time             =    0.25 sec. (40.10 ticks)
Parallel b&c, 4 threads:
  Real time             =    0.00 sec. (0.00 ticks)
  Sync time (average)   =    0.00 sec.
  Wait time (average)   =    0.00 sec.
                          ------------
Total (root+branch&cut) =    0.25 sec. (40.10 ticks)

Solution pool: 1 solution saved.

MIP - Integer optimal solution:  Objective =  0.0000000000e+00
Solution time =    0.27 sec.  Iterations = 0  Nodes = 0 (1)
Deterministic time = 40.11 ticks  (151.37 ticks/sec)

CPLEX> Incumbent solution written to file 'C:\Users\LUCASP~1\AppData\Local\Temp\tmpqiq6j_3r.cplex.sol'.
CPLEX> Maximos: {'E': 7.6198000000000015, 'C': 73.0, 'M': 0}
Minimos: {'E': 0.611782, 'C': 0.0, 'M': 0}
Resolvendo instancia...

Welcome to IBM(R) ILOG(R) CPLEX(R) Interactive Optimizer 22.1.0.0
  with Simplex, Mixed Integer & Barrier Optimizers
5725-A06 5725-A29 5724-Y48 5724-Y49 5724-Y54 5724-Y55 5655-Y21
Copyright IBM Corp. 1988, 2022.  All Rights Reserved.

Type 'help' for a list of available commands.
Type 'help' followed by a command name for more
information on commands.

CPLEX> Logfile 'cplex.log' closed.
Logfile 'C:\Users\LUCASP~1\AppData\Local\Temp\tmp8uvtsb5j.cplex.log' open.
CPLEX> Problem 'C:\Users\LUCASP~1\AppData\Local\Temp\tmptaivtpco.pyomo.lp' read.
Read time = 0.05 sec. (0.82 ticks)
CPLEX> Problem name         : C:\Users\LUCASP~1\AppData\Local\Temp\tmptaivtpco.pyomo.lp
Objective sense      : Minimize
Variables            :    5232  [Nneg: 1,  Binary: 5220,  General Integer: 11]
Objective nonzeros   :      31
Linear constraints   :    8245  [Less: 5021,  Greater: 1,  Equal: 3223]
  Nonzeros           :   20786
  RHS nonzeros       :    1593

Variables            : Min LB: 0.000000         Max UB: 1.000000       
Objective nonzeros   : Min   : 0.04364872       Max   : 0.1087297      
Linear constraints   :
  Nonzeros           : Min   : 1.000000         Max   : 100000.0       
  RHS nonzeros       : Min   : 1.000000         Max   : 10.00000       
CPLEX> Version identifier: 22.1.0.0 | 2022-03-09 | 1a383f8ce
Tried aggregator 3 times.
MIP Presolve eliminated 5105 rows and 3619 columns.
MIP Presolve modified 369 coefficients.
Aggregator did 172 substitutions.
Reduced MIP has 2968 rows, 1441 columns, and 7950 nonzeros.
Reduced MIP has 1431 binaries, 10 generals, 0 SOSs, and 0 indicators.
Presolve time = 0.08 sec. (23.62 ticks)
Found incumbent of value 0.129293 after 0.19 sec. (37.82 ticks)
Probing time = 0.02 sec. (3.40 ticks)
Tried aggregator 1 time.
Detecting symmetries...
Reduced MIP has 2968 rows, 1441 columns, and 7950 nonzeros.
Reduced MIP has 1431 binaries, 10 generals, 0 SOSs, and 0 indicators.
Presolve time = 0.05 sec. (11.78 ticks)
Probing time = 0.03 sec. (3.35 ticks)
Clique table members: 5399.
MIP emphasis: balance optimality and feasibility.
MIP search method: dynamic search.
Parallel mode: deterministic, using up to 4 threads.
Root relaxation solution time = 0.05 sec. (11.41 ticks)

        Nodes                                         Cuts/
   Node  Left     Objective  IInf  Best Integer    Best Bound    ItCnt     Gap

*     0+    0                            0.1293       -0.0873           167.52%
      0     0        0.0000    24        0.1293        0.0000      136  100.00%
*     0+    0                            0.0000        0.0000             0.00%
      0     0        cutoff              0.0000        0.0000      136    0.00%
Elapsed time = 0.50 sec. (99.65 ticks, tree = 0.01 MB, solutions = 2)

Root node processing (before b&c):
  Real time             =    0.50 sec. (99.87 ticks)
Parallel b&c, 4 threads:
  Real time             =    0.00 sec. (0.00 ticks)
  Sync time (average)   =    0.00 sec.
  Wait time (average)   =    0.00 sec.
                          ------------
Total (root+branch&cut) =    0.50 sec. (99.87 ticks)

Solution pool: 2 solutions saved.

MIP - Integer optimal solution:  Objective =  0.0000000000e+00
Solution time =    0.52 sec.  Iterations = 136  Nodes = 0
Deterministic time = 99.88 ticks  (193.57 ticks/sec)

CPLEX> Incumbent solution written to file 'C:\Users\LUCASP~1\AppData\Local\Temp\tmp3o32svnz.cplex.sol'.
CPLEX> 
Resultados:

E: 0.0 -- 0.611782 mA
C: 0.0273972602739726 -- 2.0 points
WEIGHTED: 0.0
Solving time: 0.52 s
Total Pyomo time: 1.0546104907989502 s
Total elapsed time since execution: 225.96046996116638
